System = Adsorbate on Cu surface

PREC  = ACCURATE

ISTART = 0 

ICHARG = 2 

ENCUT = 400

ISMEAR = 1

SIGMA = 0.09

EDIFF = 1E-5

EDIFFG = -0.023 

NELM = 100

NELMIN = 2

NSW = 0

ALGO = FAST

IBRION = -1 

ISIF = 2

POTIM = 0.1 #step size

MAXMIX=12  #reuse the mixer between ionic steps; save time

ISPIN = 2

GGA = PE

IVDW=12 #Dispersion: D3-BJ

IDIPOL = 3 #Dipole correction (applicable for slab calculation)

LWAVE = .FALSE.

LCHARG = .FALSE.

#NCORE = 40

LREAL = AUTO



