NI_BULK_op\(1\1\1)                      
   1.00000000000000     
    12.4591999054000002    0.0000000000000000    0.0000000000000000
    -6.2295999527000001   10.7899836289000000    0.0000000000000000
     0.0000000000000000    0.0000000000000000   23.1382999419999997
   Ni   C 
   75     1
Selective dynamics
Direct
0.799968364	0.59957959	0.195644926	T	T	T
0.199583384	0.599581136	0.195646923	T	T	T
0.799950174	0.799602369	0.195666316	T	T	T
0.399623003	0.799594577	0.195667659	T	T	T
0.399629677	0.199422112	0.195699347	T	T	T
0.199765514	0.199424197	0.195699827	T	T	T
0.799683403	0.199414987	0.195740723	T	T	T
0.599844591	-0.000495186	0.195751327	T	T	T
0.799632094	-0.000493517	0.1957521	T	T	T
0.799482342	0.399315095	0.19577582	T	T	T
-0.000205534	0.399312192	0.195777909	T	T	T
0.599707897	0.199709801	0.195783271	T	T	T
-3.15044E-05	0.199713961	0.195784167	T	T	T
-0.000478647	0.599082068	0.195784678	T	T	T
0.399928775	-0.000312466	0.195794199	T	T	T
-0.000270838	-0.000304968	0.195795884	T	T	T
0.199677705	0.799420391	0.195797924	T	T	T
-0.000284135	0.799421737	0.195798484	T	T	T
0.199832828	-0.000315367	0.195800286	T	T	T
0.600031503	0.599837385	0.195832943	T	T	T
0.399768898	0.599831936	0.195837059	T	T	T
0.399709613	0.399460729	0.195889701	T	T	T
0.599706947	0.399619691	0.195920008	T	T	T
0.199893233	0.399627091	0.195923647	T	T	T
0.599812087	0.799647322	0.195936425	T	T	T
0.466385987	0.532816814	0.281734707	T	T	T
0.066242204	0.732540623	0.281963498	T	T	T
0.866327779	0.932366869	0.282000864	T	T	T
0.465996486	0.932360412	0.282006127	T	T	T
0.066357375	0.932438432	0.2820131	T	T	T
0.266045436	0.932447404	0.282016203	T	T	T
0.666033553	0.132533615	0.282041373	T	T	T
0.866063715	0.532552445	0.282042481	T	T	T
0.066446828	0.532550766	0.282042889	T	T	T
0.266268691	0.732476446	0.282044821	T	T	T
0.866179475	0.732475853	0.282045486	T	T	T
0.866457828	0.132545633	0.28204692	T	T	T
0.866264911	0.332564075	0.282049221	T	T	T
0.066624703	0.132600115	0.282096227	T	T	T
0.465920426	0.132595213	0.282097546	T	T	T
0.26629694	0.132631331	0.282116047	T	T	T
0.666109359	0.932263178	0.282320124	T	T	T
0.665851491	0.332828631	0.282405965	T	T	T
0.066934726	0.332834743	0.282409585	T	T	T
0.466218453	0.732255325	0.282586356	T	T	T
0.266882639	0.532833245	0.282587215	T	T	T
0.666009126	0.732252882	0.282589819	T	T	T
0.466113604	0.333023265	0.282592562	T	T	T
0.665897005	0.532828441	0.282593916	T	T	T
0.266865664	0.333026037	0.282596224	T	T	T
0.933594418	0.866256939	0.368089742	T	T	T
0.332621426	0.866256429	0.368093144	T	T	T
0.132193438	0.665784366	0.368104545	T	T	T
0.933557885	0.665793666	0.368113469	T	T	T
0.132765964	0.865584552	0.368120541	T	T	T
0.932703894	0.465437692	0.368148687	T	T	T
0.33108659	0.66774628	0.368155379	T	T	T
0.736625181	0.667728051	0.368156884	T	T	T
0.5330233	0.065848182	0.368157371	T	T	T
0.932790954	0.065845919	0.368161736	T	T	T
0.132230891	0.064866781	0.368189388	T	T	T
0.332587813	0.064876168	0.368196204	T	T	T
0.33093205	0.26189187	0.368246374	T	T	T
0.733226227	0.066517591	0.368253264	T	T	T
0.73309975	0.265425795	0.368283309	T	T	T
0.932282484	0.265439238	0.36829097	T	T	T
0.735315493	0.868574985	0.368436909	T	T	T
0.735055835	0.46547869	0.368439219	T	T	T
0.533239555	0.868580026	0.368440242	T	T	T
0.130374834	0.465475376	0.36844287	T	T	T
0.532975718	0.263349257	0.368521318	T	T	T
0.130327075	0.263334136	0.368526535	T	T	T
0.536214473	0.462410456	0.371312352	T	T	T
0.326153931	0.462419123	0.371318589	T	T	T
0.536370779	0.672795373	0.371424102	T	T	T
0.46627339	0.532603331	0.410914381	T	T	T

